NAME          
ROWS
 N  OBJ
 L  c1
 L  c2
 L  c3
 L  c4
 L  c5
COLUMNS
    f         c3        1
    f         c4        1
    a         c1        1
    a         c2        1
    a         c3        2
    a         c5        2
    b         c1        1
    b         c2        2
    b         c4        1
    b         c5        -1
    c         OBJ       0
    d         c2        1
    e         c2        2
RHS
    rhs       c1        1
    rhs       c2        0
    rhs       c3        2
    rhs       c4        3
    rhs       c5        -1
RANGES
BOUNDS
 FX bounds    f         -2
 LO bounds    a         2
 PL bounds    a
 FR bounds    b
 FR bounds    c
 FR bounds    d
 FR bounds    e
ENDATA
